\* Optimise_visit_to_Paris *\
Maximize
OBJ: __dummy
Subject To
_C1: ML - SC = 0
_C2: - AC + AT = 0
_C3: - JT + MO = 0
_C4: MO - PC = 0
_C5: JT - PC = 0
_C6: - CN + CP = 0
_C7: CP - SC = 0
_C8: CN - SC = 0
Bounds
__dummy = 0
Binaries
AC
AT
CN
CP
JT
ML
MO
PC
SC
End
